c CNF file corresponding to a (partial) station packing problem.
p cnf 1833 229
1 2 3 4 5 6 7 8 9 10 11 12 13 14 0
-1 -2 0
-1 -3 0
-1 -4 0
-1 -5 0
-1 -6 0
-1 -7 0
-1 -8 0
-1 -9 0
-1 -10 0
-1 -11 0
-1 -12 0
-1 -13 0
-1 -14 0
-2 -3 0
-2 -4 0
-2 -5 0
-2 -6 0
-2 -7 0
-2 -8 0
-2 -9 0
-2 -10 0
-2 -11 0
-2 -12 0
-2 -13 0
-2 -14 0
-3 -4 0
-3 -5 0
-3 -6 0
-3 -7 0
-3 -8 0
-3 -9 0
-3 -10 0
-3 -11 0
-3 -12 0
-3 -13 0
-3 -14 0
-4 -5 0
-4 -6 0
-4 -7 0
-4 -8 0
-4 -9 0
-4 -10 0
-4 -11 0
-4 -12 0
-4 -13 0
-4 -14 0
-5 -6 0
-5 -7 0
-5 -8 0
-5 -9 0
-5 -10 0
-5 -11 0
-5 -12 0
-5 -13 0
-5 -14 0
-6 -7 0
-6 -8 0
-6 -9 0
-6 -10 0
-6 -11 0
-6 -12 0
-6 -13 0
-6 -14 0
-7 -8 0
-7 -9 0
-7 -10 0
-7 -11 0
-7 -12 0
-7 -13 0
-7 -14 0
-8 -9 0
-8 -10 0
-8 -11 0
-8 -12 0
-8 -13 0
-8 -14 0
-9 -10 0
-9 -11 0
-9 -12 0
-9 -13 0
-9 -14 0
-10 -11 0
-10 -12 0
-10 -13 0
-10 -14 0
-11 -12 0
-11 -13 0
-11 -14 0
-12 -13 0
-12 -14 0
-13 -14 0
1817 1818 1819 1820 1821 1822 1823 1824 1825 1826 1827 1828 1829 1830 1831 1832 1833 0
-1817 -1818 0
-1817 -1819 0
-1817 -1820 0
-1817 -1821 0
-1817 -1822 0
-1817 -1823 0
-1817 -1824 0
-1817 -1825 0
-1817 -1826 0
-1817 -1827 0
-1817 -1828 0
-1817 -1829 0
-1817 -1830 0
-1817 -1831 0
-1817 -1832 0
-1817 -1833 0
-1818 -1819 0
-1818 -1820 0
-1818 -1821 0
-1818 -1822 0
-1818 -1823 0
-1818 -1824 0
-1818 -1825 0
-1818 -1826 0
-1818 -1827 0
-1818 -1828 0
-1818 -1829 0
-1818 -1830 0
-1818 -1831 0
-1818 -1832 0
-1818 -1833 0
-1819 -1820 0
-1819 -1821 0
-1819 -1822 0
-1819 -1823 0
-1819 -1824 0
-1819 -1825 0
-1819 -1826 0
-1819 -1827 0
-1819 -1828 0
-1819 -1829 0
-1819 -1830 0
-1819 -1831 0
-1819 -1832 0
-1819 -1833 0
-1820 -1821 0
-1820 -1822 0
-1820 -1823 0
-1820 -1824 0
-1820 -1825 0
-1820 -1826 0
-1820 -1827 0
-1820 -1828 0
-1820 -1829 0
-1820 -1830 0
-1820 -1831 0
-1820 -1832 0
-1820 -1833 0
-1821 -1822 0
-1821 -1823 0
-1821 -1824 0
-1821 -1825 0
-1821 -1826 0
-1821 -1827 0
-1821 -1828 0
-1821 -1829 0
-1821 -1830 0
-1821 -1831 0
-1821 -1832 0
-1821 -1833 0
-1822 -1823 0
-1822 -1824 0
-1822 -1825 0
-1822 -1826 0
-1822 -1827 0
-1822 -1828 0
-1822 -1829 0
-1822 -1830 0
-1822 -1831 0
-1822 -1832 0
-1822 -1833 0
-1823 -1824 0
-1823 -1825 0
-1823 -1826 0
-1823 -1827 0
-1823 -1828 0
-1823 -1829 0
-1823 -1830 0
-1823 -1831 0
-1823 -1832 0
-1823 -1833 0
-1824 -1825 0
-1824 -1826 0
-1824 -1827 0
-1824 -1828 0
-1824 -1829 0
-1824 -1830 0
-1824 -1831 0
-1824 -1832 0
-1824 -1833 0
-1825 -1826 0
-1825 -1827 0
-1825 -1828 0
-1825 -1829 0
-1825 -1830 0
-1825 -1831 0
-1825 -1832 0
-1825 -1833 0
-1826 -1827 0
-1826 -1828 0
-1826 -1829 0
-1826 -1830 0
-1826 -1831 0
-1826 -1832 0
-1826 -1833 0
-1827 -1828 0
-1827 -1829 0
-1827 -1830 0
-1827 -1831 0
-1827 -1832 0
-1827 -1833 0
-1828 -1829 0
-1828 -1830 0
-1828 -1831 0
-1828 -1832 0
-1828 -1833 0
-1829 -1830 0
-1829 -1831 0
-1829 -1832 0
-1829 -1833 0
-1830 -1831 0
-1830 -1832 0
-1830 -1833 0
-1831 -1832 0
-1831 -1833 0
-1832 -1833 0
